U_400_1.txt

VEHICLE     CAPACITY  LOCATIONS  CUSTOMER  OPTIONS  PRIORITIES  NUMTYPS
10		150		481		400		800		3		4

CUSTOMER  DEMAND
0	 20
1	 19
2	 15
3	 13
4	 13
5	 16
6	 10
7	 19
8	 10
9	 11
10	 18
11	 11
12	 19
13	 18
14	 19
15	 19
16	 19
17	 12
18	 15
19	 12
20	 11
21	 16
22	 14
23	 20
24	 11
25	 15
26	 17
27	 18
28	 17
29	 14
30	 19
31	 10
32	 16
33	 12
34	 16
35	 20
36	 10
37	 17
38	 20
39	 17
40	 14
41	 13
42	 15
43	 18
44	 15
45	 14
46	 20
47	 11
48	 16
49	 10
50	 18
51	 12
52	 16
53	 17
54	 11
55	 19
56	 12
57	 12
58	 17
59	 13
60	 16
61	 13
62	 20
63	 14
64	 17
65	 14
66	 16
67	 10
68	 12
69	 15
70	 19
71	 18
72	 16
73	 14
74	 14
75	 20
76	 20
77	 17
78	 19
79	 12
80	 13
81	 14
82	 10
83	 13
84	 18
85	 16
86	 11
87	 12
88	 16
89	 11
90	 14
91	 20
92	 15
93	 14
94	 18
95	 17
96	 18
97	 10
98	 13
99	 16
100	 14
101	 12
102	 12
103	 13
104	 17
105	 14
106	 11
107	 12
108	 20
109	 15
110	 18
111	 20
112	 17
113	 16
114	 20
115	 16
116	 19
117	 16
118	 16
119	 10
120	 17
121	 15
122	 18
123	 16
124	 11
125	 17
126	 15
127	 13
128	 18
129	 10
130	 18
131	 18
132	 18
133	 13
134	 15
135	 13
136	 18
137	 15
138	 14
139	 11
140	 18
141	 15
142	 17
143	 16
144	 15
145	 19
146	 12
147	 19
148	 13
149	 11
150	 11
151	 14
152	 13
153	 13
154	 19
155	 17
156	 14
157	 20
158	 18
159	 14
160	 16
161	 16
162	 19
163	 18
164	 18
165	 12
166	 12
167	 11
168	 10
169	 11
170	 14
171	 20
172	 13
173	 14
174	 19
175	 12
176	 12
177	 14
178	 18
179	 15
180	 12
181	 15
182	 15
183	 14
184	 15
185	 12
186	 19
187	 10
188	 15
189	 13
190	 11
191	 17
192	 15
193	 12
194	 18
195	 18
196	 12
197	 12
198	 17
199	 13
200	 16
201	 18
202	 10
203	 18
204	 19
205	 17
206	 20
207	 20
208	 19
209	 17
210	 18
211	 14
212	 14
213	 15
214	 12
215	 20
216	 11
217	 16
218	 20
219	 10
220	 10
221	 10
222	 14
223	 18
224	 15
225	 16
226	 20
227	 15
228	 16
229	 12
230	 13
231	 12
232	 16
233	 11
234	 17
235	 19
236	 11
237	 20
238	 11
239	 16
240	 10
241	 12
242	 10
243	 15
244	 13
245	 10
246	 13
247	 17
248	 18
249	 11
250	 18
251	 17
252	 17
253	 15
254	 20
255	 14
256	 11
257	 19
258	 10
259	 20
260	 15
261	 20
262	 19
263	 12
264	 16
265	 15
266	 13
267	 19
268	 12
269	 11
270	 16
271	 14
272	 19
273	 18
274	 12
275	 13
276	 13
277	 19
278	 18
279	 11
280	 15
281	 10
282	 15
283	 16
284	 17
285	 13
286	 14
287	 13
288	 16
289	 12
290	 16
291	 12
292	 18
293	 20
294	 20
295	 17
296	 14
297	 12
298	 12
299	 20
300	 18
301	 14
302	 20
303	 17
304	 17
305	 18
306	 12
307	 10
308	 19
309	 17
310	 20
311	 18
312	 13
313	 19
314	 14
315	 13
316	 11
317	 20
318	 13
319	 20
320	 10
321	 10
322	 16
323	 12
324	 14
325	 12
326	 15
327	 11
328	 11
329	 15
330	 11
331	 13
332	 10
333	 10
334	 11
335	 17
336	 17
337	 16
338	 12
339	 14
340	 11
341	 15
342	 10
343	 16
344	 11
345	 15
346	 16
347	 15
348	 15
349	 18
350	 11
351	 13
352	 11
353	 18
354	 19
355	 14
356	 13
357	 19
358	 15
359	 20
360	 10
361	 16
362	 19
363	 14
364	 15
365	 15
366	 18
367	 17
368	 17
369	 19
370	 17
371	 16
372	 14
373	 16
374	 18
375	 18
376	 19
377	 19
378	 14
379	 20
380	 19
381	 16
382	 16
383	 11
384	 14
385	 15
386	 15
387	 17
388	 16
389	 17
390	 20
391	 20
392	 19
393	 13
394	 18
395	 15
396	 10
397	 15
398	 19
399	 13

LOCATION  XCOORD  YCOORD  CAP  READY  DUE  TYP  SERVICETIME
0		39		31		-1		0		720	 0		0
1		7		25		-1		264		504		 2		6
2		34		2		-1		360		720		 2		6
3		16		48		-1		433		553		 2		6
4		44		2		-1		165		285		 2		6
5		27		34		-1		102		222		 2		6
6		14		44		-1		0		360		 2		6
7		16		46		-1		360		720		 2		6
8		47		33		-1		0		360		 2		6
9		6		44		-1		0		360		 2		6
10		5		3		-1		76		196		 2		6
11		38		5		-1		0		360		 2		6
12		42		47		-1		247		487		 2		6
13		13		34		-1		130		250		 2		6
14		50		42		-1		27		147		 2		6
15		42		32		-1		0		360		 2		6
16		37		20		-1		108		228		 2		6
17		41		12		-1		448		688		 2		6
18		8		25		-1		179		299		 2		6
19		40		32		-1		0		360		 2		6
20		2		8		-1		360		720		 2		6
21		43		2		-1		0		360		 2		6
22		23		13		-1		138		258		 2		6
23		27		23		-1		360		720		 2		6
24		42		50		-1		227		347		 2		6
25		12		31		-1		88		208		 2		6
26		27		7		-1		419		539		 2		6
27		35		20		-1		117		237		 2		6
28		47		12		-1		198		438		 2		6
29		21		16		-1		360		720		 2		6
30		32		50		-1		373		493		 2		6
31		40		8		-1		360		720		 2		6
32		22		23		-1		555		675		 2		6
33		11		46		-1		510		630		 2		6
34		32		16		-1		390		510		 2		6
35		9		37		-1		131		251		 2		6
36		24		35		-1		360		720		 2		6
37		31		4		-1		451		571		 2		6
38		50		3		-1		0		360		 2		6
39		15		19		-1		438		558		 2		6
40		41		20		-1		414		534		 2		6
41		22		31		-1		233		353		 2		6
42		14		29		-1		58		178		 2		6
43		39		12		-1		0		360		 2		6
44		32		47		-1		360		720		 2		6
45		29		31		-1		0		360		 2		6
46		35		3		-1		303		543		 2		6
47		2		35		-1		360		720		 2		6
48		20		31		-1		393		633		 2		6
49		18		3		-1		0		360		 2		6
50		23		18		-1		187		427		 2		6
51		25		31		-1		53		293		 2		6
52		43		13		-1		0		360		 2		6
53		38		29		-1		0		360		 2		6
54		2		35		-1		473		713		 2		6
55		8		25		-1		18		258		 2		6
56		36		48		-1		120		360		 2		6
57		7		29		-1		590		710		 2		6
58		6		7		-1		476		716		 2		6
59		48		45		-1		0		360		 2		6
60		10		28		-1		265		505		 2		6
61		36		46		-1		0		360		 2		6
62		32		50		-1		254		494		 2		6
63		21		18		-1		417		537		 2		6
64		30		5		-1		78		198		 2		6
65		22		48		-1		360		720		 2		6
66		31		13		-1		495		615		 2		6
67		48		35		-1		564		684		 2		6
68		12		37		-1		168		288		 2		6
69		14		29		-1		548		668		 2		6
70		39		23		-1		548		668		 2		6
71		33		41		-1		34		154		 2		6
72		8		36		-1		0		360		 2		6
73		29		49		-1		0		360		 2		6
74		14		2		-1		109		229		 2		6
75		26		11		-1		0		360		 2		6
76		7		6		-1		360		720		 2		6
77		44		28		-1		0		360		 2		6
78		38		39		-1		360		720		 2		6
79		26		5		-1		360		720		 2		6
80		20		39		-1		469		589		 2		6
81		33		9		-1		360		720		 2		6
82		7		14		-1		176		296		 2		6
83		22		28		-1		525		645		 2		6
84		44		25		-1		0		360		 2		6
85		27		40		-1		0		360		 2		6
86		14		34		-1		54		174		 2		6
87		1		45		-1		0		360		 2		6
88		27		49		-1		360		720		 2		6
89		29		7		-1		360		720		 2		6
90		13		44		-1		432		552		 2		6
91		23		30		-1		216		336		 2		6
92		38		18		-1		131		371		 2		6
93		11		26		-1		175		295		 2		6
94		45		9		-1		59		299		 2		6
95		43		41		-1		417		537		 2		6
96		11		40		-1		360		720		 2		6
97		15		35		-1		365		485		 2		6
98		42		34		-1		0		360		 2		6
99		44		21		-1		594		714		 2		6
100		8		40		-1		39		279		 2		6
101		15		27		-1		99		219		 2		6
102		20		33		-1		181		301		 2		6
103		27		15		-1		219		459		 2		6
104		25		21		-1		124		244		 2		6
105		22		2		-1		25		265		 2		6
106		38		48		-1		360		720		 2		6
107		39		49		-1		445		565		 2		6
108		38		18		-1		0		360		 2		6
109		2		12		-1		495		615		 2		6
110		47		9		-1		553		673		 2		6
111		30		47		-1		316		556		 2		6
112		38		49		-1		175		295		 2		6
113		39		6		-1		360		720		 2		6
114		50		31		-1		360		720		 2		6
115		23		34		-1		18		138		 2		6
116		47		31		-1		360		720		 2		6
117		11		46		-1		0		360		 2		6
118		9		30		-1		360		720		 2		6
119		12		35		-1		360		720		 2		6
120		16		24		-1		438		558		 2		6
121		30		47		-1		360		720		 2		6
122		17		25		-1		532		652		 2		6
123		46		37		-1		420		540		 2		6
124		7		17		-1		375		495		 2		6
125		1		7		-1		474		594		 2		6
126		11		25		-1		42		162		 2		6
127		27		4		-1		258		498		 2		6
128		39		12		-1		184		424		 2		6
129		27		14		-1		77		317		 2		6
130		17		18		-1		0		360		 2		6
131		1		47		-1		360		720		 2		6
132		40		37		-1		566		686		 2		6
133		2		21		-1		76		316		 2		6
134		44		50		-1		360		720		 2		6
135		12		39		-1		22		262		 2		6
136		33		29		-1		38		158		 2		6
137		22		17		-1		383		623		 2		6
138		14		23		-1		0		360		 2		6
139		32		42		-1		142		262		 2		6
140		12		27		-1		415		535		 2		6
141		47		45		-1		360		720		 2		6
142		30		2		-1		234		354		 2		6
143		30		4		-1		360		720		 2		6
144		3		33		-1		360		720		 2		6
145		30		36		-1		340		580		 2		6
146		28		50		-1		0		360		 2		6
147		13		14		-1		110		230		 2		6
148		47		8		-1		74		194		 2		6
149		7		35		-1		230		350		 2		6
150		8		10		-1		190		430		 2		6
151		10		49		-1		360		720		 2		6
152		12		36		-1		576		696		 2		6
153		24		2		-1		62		182		 2		6
154		9		46		-1		281		521		 2		6
155		46		20		-1		105		345		 2		6
156		50		37		-1		0		360		 2		6
157		35		32		-1		0		240		 2		6
158		8		43		-1		124		364		 2		6
159		38		1		-1		360		720		 2		6
160		27		34		-1		360		720		 2		6
161		33		6		-1		439		559		 2		6
162		44		11		-1		0		360		 2		6
163		47		21		-1		508		628		 2		6
164		26		35		-1		196		316		 2		6
165		15		18		-1		514		634		 2		6
166		9		21		-1		260		500		 2		6
167		10		7		-1		531		651		 2		6
168		36		16		-1		225		345		 2		6
169		49		24		-1		432		552		 2		6
170		45		12		-1		0		360		 2		6
171		9		22		-1		26		266		 2		6
172		50		42		-1		360		720		 2		6
173		11		16		-1		390		510		 2		6
174		49		15		-1		97		337		 2		6
175		32		30		-1		515		635		 2		6
176		49		2		-1		468		708		 2		6
177		2		39		-1		452		692		 2		6
178		29		26		-1		202		442		 2		6
179		31		50		-1		483		603		 2		6
180		34		44		-1		360		720		 2		6
181		37		46		-1		360		720		 2		6
182		23		8		-1		522		642		 2		6
183		18		4		-1		91		331		 2		6
184		25		43		-1		450		570		 2		6
185		19		40		-1		360		720		 2		6
186		23		9		-1		360		720		 2		6
187		16		48		-1		114		234		 2		6
188		20		4		-1		558		678		 2		6
189		28		10		-1		262		502		 2		6
190		35		25		-1		26		146		 2		6
191		15		30		-1		418		538		 2		6
192		11		27		-1		364		484		 2		6
193		11		46		-1		0		360		 2		6
194		7		30		-1		561		681		 2		6
195		43		17		-1		0		360		 2		6
196		44		19		-1		456		696		 2		6
197		50		32		-1		0		360		 2		6
198		38		24		-1		595		715		 2		6
199		49		4		-1		401		521		 2		6
200		23		21		-1		360		720		 2		6
201		43		28		-1		471		591		 2		6
202		32		34		-1		366		486		 2		6
203		10		37		-1		436		676		 2		6
204		40		6		-1		9		129		 2		6
205		27		10		-1		135		255		 2		6
206		22		8		-1		377		617		 2		6
207		34		12		-1		0		360		 2		6
208		38		15		-1		487		607		 2		6
209		29		22		-1		3		123		 2		6
210		21		29		-1		432		552		 2		6
211		43		22		-1		289		529		 2		6
212		42		17		-1		0		360		 2		6
213		41		10		-1		0		360		 2		6
214		43		21		-1		360		720		 2		6
215		9		35		-1		141		381		 2		6
216		7		31		-1		360		720		 2		6
217		11		5		-1		349		589		 2		6
218		18		16		-1		73		193		 2		6
219		49		39		-1		414		534		 2		6
220		17		45		-1		36		156		 2		6
221		50		49		-1		213		333		 2		6
222		19		5		-1		431		551		 2		6
223		5		32		-1		561		681		 2		6
224		5		41		-1		54		294		 2		6
225		31		50		-1		360		720		 2		6
226		32		5		-1		201		441		 2		6
227		34		17		-1		0		360		 2		6
228		34		16		-1		362		602		 2		6
229		36		7		-1		12		132		 2		6
230		11		23		-1		192		312		 2		6
231		24		5		-1		360		720		 2		6
232		42		9		-1		408		528		 2		6
233		6		45		-1		0		360		 2		6
234		22		20		-1		360		720		 2		6
235		2		48		-1		360		720		 2		6
236		23		44		-1		51		291		 2		6
237		34		46		-1		219		339		 2		6
238		42		50		-1		206		326		 2		6
239		34		19		-1		570		690		 2		6
240		12		16		-1		360		720		 2		6
241		9		3		-1		232		352		 2		6
242		50		12		-1		360		720		 2		6
243		23		28		-1		363		483		 2		6
244		35		40		-1		0		360		 2		6
245		5		45		-1		0		360		 2		6
246		40		34		-1		142		262		 2		6
247		44		9		-1		0		360		 2		6
248		50		34		-1		35		155		 2		6
249		45		4		-1		452		692		 2		6
250		1		20		-1		353		593		 2		6
251		33		29		-1		101		341		 2		6
252		17		7		-1		0		360		 2		6
253		36		13		-1		237		357		 2		6
254		29		34		-1		474		594		 2		6
255		37		17		-1		0		360		 2		6
256		30		12		-1		163		283		 2		6
257		2		13		-1		360		720		 2		6
258		46		32		-1		0		360		 2		6
259		15		45		-1		0		360		 2		6
260		4		3		-1		437		677		 2		6
261		39		6		-1		345		585		 2		6
262		44		27		-1		329		569		 2		6
263		39		31		-1		360		720		 2		6
264		7		33		-1		360		720		 2		6
265		3		16		-1		383		503		 2		6
266		3		22		-1		360		720		 2		6
267		26		44		-1		0		360		 2		6
268		28		2		-1		360		720		 2		6
269		50		20		-1		372		492		 2		6
270		45		46		-1		7		127		 2		6
271		31		35		-1		490		610		 2		6
272		46		20		-1		360		720		 2		6
273		49		42		-1		189		429		 2		6
274		38		3		-1		567		687		 2		6
275		45		4		-1		441		561		 2		6
276		43		44		-1		0		360		 2		6
277		45		35		-1		0		360		 2		6
278		43		11		-1		204		324		 2		6
279		12		44		-1		194		314		 2		6
280		27		33		-1		360		720		 2		6
281		32		18		-1		125		245		 2		6
282		26		43		-1		360		720		 2		6
283		23		35		-1		255		495		 2		6
284		16		6		-1		563		683		 2		6
285		38		4		-1		78		318		 2		6
286		23		45		-1		0		360		 2		6
287		45		19		-1		413		533		 2		6
288		39		16		-1		360		720		 2		6
289		28		12		-1		360		720		 2		6
290		3		3		-1		0		360		 2		6
291		39		28		-1		360		720		 2		6
292		1		7		-1		4		124		 2		6
293		27		41		-1		1		241		 2		6
294		14		25		-1		360		720		 2		6
295		33		20		-1		360		720		 2		6
296		3		6		-1		0		360		 2		6
297		2		16		-1		37		157		 2		6
298		37		15		-1		206		446		 2		6
299		28		34		-1		360		720		 2		6
300		40		16		-1		403		643		 2		6
301		25		29		-1		0		360		 2		6
302		27		4		-1		0		360		 2		6
303		9		39		-1		177		297		 2		6
304		46		31		-1		178		298		 2		6
305		13		14		-1		120		240		 2		6
306		19		43		-1		117		357		 2		6
307		39		9		-1		495		615		 2		6
308		32		1		-1		498		618		 2		6
309		43		25		-1		360		720		 2		6
310		37		37		-1		441		561		 2		6
311		16		44		-1		205		325		 2		6
312		41		40		-1		0		360		 2		6
313		39		3		-1		61		181		 2		6
314		46		6		-1		377		617		 2		6
315		28		12		-1		480		720		 2		6
316		7		33		-1		432		552		 2		6
317		3		44		-1		461		701		 2		6
318		45		6		-1		414		654		 2		6
319		50		10		-1		220		340		 2		6
320		30		13		-1		93		333		 2		6
321		35		28		-1		154		274		 2		6
322		22		49		-1		0		360		 2		6
323		23		27		-1		279		519		 2		6
324		25		43		-1		584		704		 2		6
325		24		16		-1		597		717		 2		6
326		47		11		-1		360		720		 2		6
327		17		29		-1		0		360		 2		6
328		32		4		-1		0		360		 2		6
329		34		46		-1		360		720		 2		6
330		6		35		-1		100		220		 2		6
331		32		41		-1		89		209		 2		6
332		29		28		-1		0		360		 2		6
333		49		48		-1		145		385		 2		6
334		28		21		-1		218		458		 2		6
335		42		16		-1		360		720		 2		6
336		4		31		-1		360		720		 2		6
337		43		9		-1		0		360		 2		6
338		41		9		-1		19		139		 2		6
339		49		22		-1		0		360		 2		6
340		26		46		-1		511		631		 2		6
341		47		46		-1		256		496		 2		6
342		5		46		-1		123		363		 2		6
343		48		40		-1		580		700		 2		6
344		3		44		-1		495		615		 2		6
345		2		37		-1		360		720		 2		6
346		4		6		-1		233		473		 2		6
347		38		32		-1		458		578		 2		6
348		22		43		-1		84		204		 2		6
349		15		24		-1		164		284		 2		6
350		47		14		-1		437		557		 2		6
351		3		28		-1		140		260		 2		6
352		8		35		-1		0		360		 2		6
353		27		17		-1		0		360		 2		6
354		40		47		-1		14		134		 2		6
355		36		14		-1		465		585		 2		6
356		40		43		-1		154		274		 2		6
357		13		47		-1		107		347		 2		6
358		33		17		-1		89		329		 2		6
359		24		2		-1		455		575		 2		6
360		39		8		-1		201		321		 2		6
361		40		24		-1		97		337		 2		6
362		32		30		-1		447		567		 2		6
363		5		18		-1		360		720		 2		6
364		42		3		-1		360		720		 2		6
365		18		26		-1		8		248		 2		6
366		44		37		-1		476		716		 2		6
367		33		22		-1		570		690		 2		6
368		18		30		-1		0		360		 2		6
369		25		20		-1		0		360		 2		6
370		9		16		-1		457		697		 2		6
371		41		30		-1		0		360		 2		6
372		37		5		-1		171		411		 2		6
373		46		27		-1		256		496		 2		6
374		3		15		-1		19		259		 2		6
375		10		43		-1		360		720		 2		6
376		23		23		-1		0		360		 2		6
377		34		17		-1		549		669		 2		6
378		5		4		-1		0		360		 2		6
379		14		35		-1		360		720		 2		6
380		7		4		-1		360		720		 2		6
381		50		41		-1		372		492		 2		6
382		35		32		-1		25		145		 2		6
383		50		15		-1		360		720		 2		6
384		35		13		-1		529		649		 2		6
385		16		14		-1		19		259		 2		6
386		9		24		-1		487		607		 2		6
387		43		38		-1		0		360		 2		6
388		8		16		-1		0		360		 2		6
389		46		40		-1		360		720		 2		6
390		3		50		-1		0		360		 2		6
391		18		47		-1		0		360		 2		6
392		43		7		-1		114		234		 2		6
393		32		9		-1		0		360		 2		6
394		6		28		-1		0		360		 2		6
395		32		50		-1		360		720		 2		6
396		9		47		-1		157		277		 2		6
397		28		38		-1		558		678		 2		6
398		17		35		-1		124		364		 2		6
399		43		6		-1		10		130		 2		6
400		5		21		-1		360		720		 2		6
401		36		6		5		153		633		 1		4
402		17		35		5		45		525		 1		4
403		26		22		3		0		720		 1		4
404		40		11		3		0		720		 1		4
405		17		39		5		91		571		 1		4
406		10		16		5		0		720		 1		4
407		20		12		5		109		589		 1		4
408		9		33		5		0		720		 1		4
409		20		27		3		0		720		 1		4
410		40		8		5		234		714		 1		4
411		38		24		3		0		720		 1		4
412		28		5		4		0		720		 1		4
413		30		33		5		193		673		 1		4
414		45		28		4		0		720		 1		4
415		37		11		3		0		720		 1		4
416		39		15		5		193		673		 1		4
417		10		26		5		65		545		 1		4
418		32		36		4		0		720		 1		4
419		27		42		5		0		720		 1		4
420		13		37		5		41		521		 1		4
421		29		37		5		0		720		 1		4
422		17		24		5		133		613		 1		4
423		38		22		5		234		714		 1		4
424		34		26		5		141		621		 1		4
425		12		30		5		0		720		 1		4
426		45		13		5		239		719		 1		4
427		19		33		5		237		717		 1		4
428		33		21		5		135		615		 1		4
429		10		44		5		68		548		 1		4
430		43		27		5		0		720		 1		4
431		5		34		5		195		675		 1		4
432		42		35		3		0		720		 1		4
433		41		31		4		0		720		 1		4
434		40		15		3		0		720		 1		4
435		11		6		5		140		620		 1		4
436		24		33		5		0		720		 1		4
437		15		35		3		0		720		 1		4
438		34		11		5		28		508		 1		4
439		23		18		4		0		720		 1		4
440		9		6		5		196		676		 1		4
441		14		30		5		180		660		 1		4
442		15		17		5		21		501		 1		4
443		35		20		5		0		720		 1		4
444		28		30		5		77		557		 1		4
445		39		26		5		192		672		 1		4
446		27		22		3		0		720		 1		4
447		11		33		3		0		720		 1		4
448		40		18		5		130		610		 1		4
449		8		30		3		0		720		 1		4
450		42		33		5		206		686		 1		4
451		32		12		5		157		637		 1		4
452		26		45		5		214		694		 1		4
453		43		23		5		0		720		 1		4
454		10		17		5		193		673		 1		4
455		40		31		5		156		636		 1		4
456		31		25		5		64		544		 1		4
457		27		29		4		0		720		 1		4
458		33		41		5		0		720		 1		4
459		27		32		5		162		642		 1		4
460		23		16		5		152		632		 1		4
461		21		13		3		0		720		 1		4
462		7		19		5		0		720		 1		4
463		31		11		5		82		562		 1		4
464		15		41		5		133		613		 1		4
465		39		32		4		0		720		 1		4
466		31		7		5		141		621		 1		4
467		17		16		5		149		629		 1		4
468		21		29		5		28		508		 1		4
469		38		23		5		23		503		 1		4
470		41		9		3		0		720		 1		4
471		20		40		3		0		720		 1		4
472		10		24		5		218		698		 1		4
473		24		28		3		0		720		 1		4
474		12		21		4		0		720		 1		4
475		11		43		5		40		520		 1		4
476		44		10		5		64		544		 1		4
477		12		40		5		27		507		 1		4
478		35		25		5		103		583		 1		4
479		45		38		5		229		709		 1		4
480		40		5		5		31		511		 1		4
OPTION  LOCATION  CUSTOMER  PRIO  SERVICETIME   COST
0		461		0		0		2		0
1		404		1		0		2		0
2		451		2		0		2		0
3		458		3		0		2		0
4		468		4		0		2		0
5		441		5		0		2		0
6		462		6		0		2		0
7		426		7		0		2		0
8		432		8		0		2		0
9		448		9		0		2		0
10		451		10		0		2		0
11		432		11		0		2		0
12		472		12		0		2		0
13		471		13		0		2		0
14		473		14		0		2		0
15		453		15		0		2		0
16		462		16		0		2		0
17		462		17		0		2		0
18		456		18		0		2		0
19		422		19		0		2		0
20		415		20		0		2		0
21		460		21		0		2		0
22		457		22		0		2		0
23		468		23		0		2		0
24		456		24		0		2		0
25		411		25		0		2		0
26		426		26		0		2		0
27		458		27		0		2		0
28		420		28		0		2		0
29		453		29		0		2		0
30		416		30		0		2		0
31		466		31		0		2		0
32		454		32		0		2		0
33		458		33		0		2		0
34		451		34		0		2		0
35		463		35		0		2		0
36		479		36		0		2		0
37		418		37		0		2		0
38		425		38		0		2		0
39		437		39		0		2		0
40		478		40		0		2		0
41		459		41		0		2		0
42		432		42		0		2		0
43		401		43		0		2		0
44		420		44		0		2		0
45		421		45		0		2		0
46		409		46		0		2		0
47		478		47		0		2		0
48		425		48		0		2		0
49		467		49		0		2		0
50		444		50		0		2		0
51		424		51		0		2		0
52		435		52		0		2		0
53		434		53		0		2		0
54		476		54		0		2		0
55		476		55		0		2		0
56		430		56		0		2		0
57		474		57		0		2		0
58		408		58		0		2		0
59		406		59		0		2		0
60		443		60		0		2		0
61		445		61		0		2		0
62		401		62		0		2		0
63		476		63		0		2		0
64		451		64		0		2		0
65		473		65		0		2		0
66		480		66		0		2		0
67		471		67		0		2		0
68		451		68		0		2		0
69		452		69		0		2		0
70		444		70		0		2		0
71		465		71		0		2		0
72		438		72		0		2		0
73		470		73		0		2		0
74		459		74		0		2		0
75		471		75		0		2		0
76		425		76		0		2		0
77		423		77		0		2		0
78		472		78		0		2		0
79		461		79		0		2		0
80		1		80		0		5		0
81		2		81		0		5		0
82		3		82		0		5		0
83		4		83		0		5		0
84		5		84		0		5		0
85		6		85		0		5		0
86		7		86		0		5		0
87		8		87		0		5		0
88		9		88		0		5		0
89		10		89		0		5		0
90		11		90		0		5		0
91		12		91		0		5		0
92		13		92		0		5		0
93		14		93		0		5		0
94		15		94		0		5		0
95		16		95		0		5		0
96		17		96		0		5		0
97		18		97		0		5		0
98		19		98		0		5		0
99		20		99		0		5		0
100		21		100		0		5		0
101		22		101		0		5		0
102		23		102		0		5		0
103		24		103		0		5		0
104		25		104		0		5		0
105		26		105		0		5		0
106		27		106		0		5		0
107		28		107		0		5		0
108		29		108		0		5		0
109		30		109		0		5		0
110		31		110		0		5		0
111		32		111		0		5		0
112		33		112		0		5		0
113		34		113		0		5		0
114		35		114		0		5		0
115		36		115		0		5		0
116		37		116		0		5		0
117		38		117		0		5		0
118		39		118		0		5		0
119		40		119		0		5		0
120		41		120		0		5		0
121		42		121		0		5		0
122		43		122		0		5		0
123		44		123		0		5		0
124		45		124		0		5		0
125		46		125		0		5		0
126		47		126		0		5		0
127		48		127		0		5		0
128		49		128		0		5		0
129		50		129		0		5		0
130		51		130		0		5		0
131		52		131		0		5		0
132		53		132		0		5		0
133		54		133		0		5		0
134		55		134		0		5		0
135		56		135		0		5		0
136		57		136		0		5		0
137		58		137		0		5		0
138		59		138		0		5		0
139		60		139		0		5		0
140		61		140		0		5		0
141		62		141		0		5		0
142		63		142		0		5		0
143		64		143		0		5		0
144		65		144		0		5		0
145		66		145		0		5		0
146		67		146		0		5		0
147		68		147		0		5		0
148		69		148		0		5		0
149		70		149		0		5		0
150		71		150		0		5		0
151		72		151		0		5		0
152		73		152		0		5		0
153		74		153		0		5		0
154		75		154		0		5		0
155		76		155		0		5		0
156		77		156		0		5		0
157		78		157		0		5		0
158		79		158		0		5		0
159		80		159		0		5		0
160		81		160		1		5		0
161		466		160		0		2		0
162		82		161		1		5		0
163		452		161		0		2		0
164		83		162		1		5		0
165		458		162		0		2		0
166		84		163		1		5		0
167		445		163		0		2		0
168		85		164		0		5		0
169		443		164		1		2		0
170		86		165		0		5		0
171		441		165		1		2		0
172		87		166		1		5		0
173		412		166		0		2		0
174		88		167		0		5		0
175		425		167		1		2		0
176		89		168		0		5		0
177		463		168		1		2		0
178		90		169		0		5		0
179		464		169		1		2		0
180		91		170		1		5		0
181		436		170		0		2		0
182		92		171		1		5		0
183		443		171		0		2		0
184		93		172		0		5		0
185		441		172		1		2		0
186		94		173		1		5		0
187		448		173		0		2		0
188		95		174		1		5		0
189		450		174		0		2		0
190		96		175		1		5		0
191		420		175		0		2		0
192		97		176		0		5		0
193		426		176		1		2		0
194		98		177		0		5		0
195		450		177		1		2		0
196		99		178		0		5		0
197		430		178		1		2		0
198		100		179		1		5		0
199		429		179		0		2		0
200		101		180		0		5		0
201		425		180		1		2		0
202		102		181		1		5		0
203		468		181		0		2		0
204		103		182		1		5		0
205		478		182		0		2		0
206		104		183		0		5		0
207		470		183		1		2		0
208		105		184		0		5		0
209		435		184		1		2		0
210		106		185		1		5		0
211		452		185		0		2		0
212		107		186		1		5		0
213		465		186		0		2		0
214		108		187		0		5		0
215		423		187		1		2		0
216		109		188		1		5		0
217		435		188		0		2		0
218		110		189		1		5		0
219		465		189		0		2		0
220		111		190		0		5		0
221		421		190		1		2		0
222		112		191		0		5		0
223		414		191		1		2		0
224		113		192		0		5		0
225		401		192		1		2		0
226		114		193		1		5		0
227		432		193		0		2		0
228		115		194		1		5		0
229		437		194		0		2		0
230		116		195		1		5		0
231		450		195		0		2		0
232		117		196		0		5		0
233		429		196		1		2		0
234		118		197		1		5		0
235		417		197		0		2		0
236		119		198		1		5		0
237		464		198		0		2		0
238		120		199		1		5		0
239		409		199		0		2		0
240		121		200		1		5		0
241		419		200		0		2		0
242		122		201		1		5		0
243		477		201		0		2		0
244		123		202		1		5		0
245		450		202		0		2		0
246		124		203		1		5		0
247		457		203		0		2		0
248		125		204		1		5		0
249		432		204		0		2		0
250		126		205		1		5		0
251		426		205		0		2		0
252		127		206		1		5		0
253		451		206		0		2		0
254		128		207		0		5		0
255		470		207		1		2		0
256		129		208		0		5		0
257		451		208		1		2		0
258		130		209		1		5		0
259		439		209		0		2		0
260		131		210		1		5		0
261		406		210		0		2		0
262		132		211		1		5		0
263		452		211		0		2		0
264		133		212		1		5		0
265		406		212		0		2		0
266		134		213		0		5		0
267		406		213		1		2		0
268		135		214		0		5		0
269		421		214		1		2		0
270		136		215		1		5		0
271		444		215		0		2		0
272		137		216		0		5		0
273		440		216		1		2		0
274		138		217		0		5		0
275		414		217		1		2		0
276		139		218		1		5		0
277		452		218		0		2		0
278		140		219		0		5		0
279		449		219		1		2		0
280		141		220		1		5		0
281		450		220		0		2		0
282		142		221		0		5		0
283		463		221		1		2		0
284		143		222		1		5		0
285		446		222		0		2		0
286		144		223		1		5		0
287		447		223		0		2		0
288		145		224		1		5		0
289		459		224		0		2		0
290		146		225		1		5		0
291		421		225		0		2		0
292		147		226		1		5		0
293		454		226		0		2		0
294		148		227		0		5		0
295		459		227		1		2		0
296		149		228		1		5		0
297		460		228		0		2		0
298		150		229		0		5		0
299		415		229		1		2		0
300		151		230		0		5		0
301		477		230		1		2		0
302		152		231		1		5		0
303		408		231		0		2		0
304		153		232		1		5		0
305		461		232		0		2		0
306		154		233		1		5		0
307		464		233		0		2		0
308		155		234		0		5		0
309		408		234		1		2		0
310		156		235		0		5		0
311		408		235		1		2		0
312		157		236		0		5		0
313		418		236		1		2		0
314		158		237		0		5		0
315		436		237		1		2		0
316		159		238		1		5		0
317		410		238		0		2		0
318		160		239		1		5		0
319		421		239		0		2		0
320		161		240		2		5		0
321		456		240		0		2		0
322		406		240		1		2		0
323		162		241		2		5		0
324		436		241		0		2		0
325		413		241		1		2		0
326		163		242		1		5		0
327		403		242		2		2		0
328		480		242		0		2		0
329		164		243		2		5		0
330		459		243		0		2		0
331		444		243		1		2		0
332		165		244		0		5		0
333		467		244		1		2		0
334		447		244		2		2		0
335		166		245		2		5		0
336		464		245		0		2		0
337		475		245		1		2		0
338		167		246		1		5		0
339		432		246		2		2		0
340		465		246		0		2		0
341		168		247		2		5		0
342		457		247		0		2		0
343		442		247		1		2		0
344		169		248		1		5		0
345		430		248		2		2		0
346		414		248		0		2		0
347		170		249		1		5		0
348		462		249		0		2		0
349		442		249		2		2		0
350		171		250		0		5		0
351		417		250		1		2		0
352		430		250		2		2		0
353		172		251		0		5		0
354		450		251		1		2		0
355		434		251		2		2		0
356		173		252		1		5		0
357		474		252		2		2		0
358		467		252		0		2		0
359		174		253		2		5		0
360		442		253		1		2		0
361		406		253		0		2		0
362		175		254		2		5		0
363		413		254		0		2		0
364		445		254		1		2		0
365		176		255		2		5		0
366		426		255		0		2		0
367		431		255		1		2		0
368		177		256		1		5		0
369		477		256		2		2		0
370		475		256		0		2		0
371		178		257		2		5		0
372		403		257		0		2		0
373		434		257		1		2		0
374		179		258		0		5		0
375		452		258		1		2		0
376		419		258		2		2		0
377		180		259		1		5		0
378		418		259		2		2		0
379		421		259		0		2		0
380		181		260		2		5		0
381		452		260		1		2		0
382		479		260		0		2		0
383		182		261		1		5		0
384		412		261		0		2		0
385		466		261		2		2		0
386		183		262		1		5		0
387		406		262		2		2		0
388		446		262		0		2		0
389		184		263		1		5		0
390		421		263		2		2		0
391		458		263		0		2		0
392		185		264		0		5		0
393		452		264		2		2		0
394		453		264		1		2		0
395		186		265		1		5		0
396		417		265		0		2		0
397		468		265		2		2		0
398		187		266		0		5		0
399		475		266		1		2		0
400		464		266		2		2		0
401		188		267		1		5		0
402		434		267		0		2		0
403		407		267		2		2		0
404		189		268		2		5		0
405		412		268		0		2		0
406		463		268		1		2		0
407		190		269		0		5		0
408		451		269		1		2		0
409		471		269		2		2		0
410		191		270		1		5		0
411		441		270		0		2		0
412		437		270		2		2		0
413		192		271		2		5		0
414		449		271		1		2		0
415		417		271		0		2		0
416		193		272		0		5		0
417		454		272		2		2		0
418		432		272		1		2		0
419		194		273		2		5		0
420		417		273		0		2		0
421		431		273		1		2		0
422		195		274		2		5		0
423		442		274		0		2		0
424		422		274		1		2		0
425		196		275		0		5		0
426		453		275		2		2		0
427		426		275		1		2		0
428		197		276		1		5		0
429		432		276		2		2		0
430		479		276		0		2		0
431		198		277		0		5		0
432		445		277		1		2		0
433		478		277		2		2		0
434		199		278		0		5		0
435		450		278		1		2		0
436		436		278		2		2		0
437		200		279		1		5		0
438		426		279		2		2		0
439		416		279		0		2		0
440		201		280		0		5		0
441		476		280		2		2		0
442		403		280		1		2		0
443		202		281		0		5		0
444		421		281		2		2		0
445		444		281		1		2		0
446		203		282		0		5		0
447		462		282		1		2		0
448		409		282		2		2		0
449		204		283		0		5		0
450		404		283		1		2		0
451		438		283		2		2		0
452		205		284		2		5		0
453		455		284		0		2		0
454		420		284		1		2		0
455		206		285		1		5		0
456		461		285		2		2		0
457		460		285		0		2		0
458		207		286		0		5		0
459		416		286		1		2		0
460		438		286		2		2		0
461		208		287		1		5		0
462		416		287		2		2		0
463		434		287		0		2		0
464		209		288		1		5		0
465		446		288		2		2		0
466		456		288		0		2		0
467		210		289		1		5		0
468		451		289		0		2		0
469		425		289		2		2		0
470		211		290		1		5		0
471		430		290		2		2		0
472		448		290		0		2		0
473		212		291		0		5		0
474		426		291		2		2		0
475		464		291		1		2		0
476		213		292		0		5		0
477		470		292		2		2		0
478		463		292		1		2		0
479		214		293		1		5		0
480		453		293		2		2		0
481		411		293		0		2		0
482		215		294		1		5		0
483		420		294		2		2		0
484		431		294		0		2		0
485		216		295		1		5		0
486		428		295		2		2		0
487		406		295		0		2		0
488		217		296		0		5		0
489		407		296		1		2		0
490		430		296		2		2		0
491		218		297		1		5		0
492		442		297		2		2		0
493		467		297		0		2		0
494		219		298		1		5		0
495		432		298		0		2		0
496		404		298		2		2		0
497		220		299		1		5		0
498		475		299		2		2		0
499		441		299		0		2		0
500		221		300		1		5		0
501		455		300		2		2		0
502		421		300		0		2		0
503		222		301		0		5		0
504		460		301		1		2		0
505		459		301		2		2		0
506		223		302		2		5		0
507		447		302		0		2		0
508		425		302		1		2		0
509		224		303		1		5		0
510		417		303		2		2		0
511		414		303		0		2		0
512		225		304		0		5		0
513		445		304		1		2		0
514		408		304		2		2		0
515		226		305		0		5		0
516		438		305		1		2		0
517		466		305		2		2		0
518		227		306		1		5		0
519		443		306		2		2		0
520		428		306		0		2		0
521		228		307		0		5		0
522		451		307		1		2		0
523		418		307		2		2		0
524		229		308		0		5		0
525		477		308		1		2		0
526		443		308		2		2		0
527		230		309		1		5		0
528		474		309		2		2		0
529		450		309		0		2		0
530		231		310		1		5		0
531		463		310		2		2		0
532		432		310		0		2		0
533		232		311		1		5		0
534		431		311		2		2		0
535		432		311		0		2		0
536		233		312		1		5		0
537		475		312		2		2		0
538		455		312		0		2		0
539		234		313		0		5		0
540		439		313		1		2		0
541		422		313		2		2		0
542		235		314		0		5		0
543		464		314		2		2		0
544		477		314		1		2		0
545		236		315		2		5		0
546		471		315		1		2		0
547		405		315		0		2		0
548		237		316		0		5		0
549		419		316		2		2		0
550		450		316		1		2		0
551		238		317		2		5		0
552		479		317		0		2		0
553		402		317		1		2		0
554		239		318		2		5		0
555		469		318		0		2		0
556		466		318		1		2		0
557		240		319		1		5		0
558		406		319		2		2		0
559		424		319		0		2		0
560		241		320		1		5		0
561		242		320		2		5		0
562		476		320		0		2		0
563		243		321		2		5		0
564		244		321		0		5		0
565		473		321		1		2		0
566		245		322		2		5		0
567		246		322		0		5		0
568		465		322		1		2		0
569		247		323		1		5		0
570		248		323		0		5		0
571		476		323		2		2		0
572		249		324		1		5		0
573		250		324		2		5		0
574		410		324		0		2		0
575		251		325		1		5		0
576		252		325		0		5		0
577		413		325		2		2		0
578		253		326		0		5		0
579		254		326		1		5		0
580		421		326		2		2		0
581		255		327		0		5		0
582		256		327		2		5		0
583		469		327		1		2		0
584		257		328		0		5		0
585		258		328		2		5		0
586		435		328		1		2		0
587		259		329		0		5		0
588		260		329		2		5		0
589		453		329		1		2		0
590		261		330		1		5		0
591		262		330		2		5		0
592		464		330		0		2		0
593		263		331		1		5		0
594		264		331		0		5		0
595		464		331		2		2		0
596		265		332		2		5		0
597		266		332		0		5		0
598		462		332		1		2		0
599		267		333		1		5		0
600		268		333		2		5		0
601		435		333		0		2		0
602		269		334		1		5		0
603		270		334		2		5		0
604		430		334		0		2		0
605		271		335		1		5		0
606		272		335		2		5		0
607		459		335		0		2		0
608		273		336		2		5		0
609		274		336		0		5		0
610		401		336		1		2		0
611		275		337		2		5		0
612		276		337		0		5		0
613		479		337		1		2		0
614		277		338		2		5		0
615		278		338		1		5		0
616		476		338		0		2		0
617		279		339		0		5		0
618		280		339		1		5		0
619		413		339		2		2		0
620		281		340		2		5		0
621		282		340		1		5		0
622		478		340		0		2		0
623		283		341		1		5		0
624		284		341		0		5		0
625		414		341		2		2		0
626		285		342		1		5		0
627		286		342		2		5		0
628		401		342		0		2		0
629		287		343		1		5		0
630		288		343		0		5		0
631		416		343		2		2		0
632		289		344		1		5		0
633		290		344		0		5		0
634		466		344		2		2		0
635		291		345		0		5		0
636		292		345		1		5		0
637		411		345		2		2		0
638		293		346		2		5		0
639		294		346		1		5		0
640		417		346		0		2		0
641		295		347		1		5		0
642		296		347		0		5		0
643		443		347		2		2		0
644		297		348		1		5		0
645		298		348		2		5		0
646		404		348		0		2		0
647		299		349		2		5		0
648		300		349		1		5		0
649		447		349		0		2		0
650		301		350		2		5		0
651		302		350		0		5		0
652		444		350		1		2		0
653		303		351		0		5		0
654		304		351		1		5		0
655		477		351		2		2		0
656		305		352		2		5		0
657		306		352		0		5		0
658		442		352		1		2		0
659		307		353		1		5		0
660		308		353		2		5		0
661		404		353		0		2		0
662		309		354		1		5		0
663		310		354		0		5		0
664		408		354		2		2		0
665		311		355		2		5		0
666		312		355		0		5		0
667		461		355		1		2		0
668		313		356		1		5		0
669		314		356		2		5		0
670		470		356		0		2		0
671		315		357		0		5		0
672		316		357		1		5		0
673		447		357		2		2		0
674		317		358		1		5		0
675		318		358		0		5		0
676		444		358		2		2		0
677		319		359		0		5		0
678		320		359		1		5		0
679		422		359		2		2		0
680		321		360		1		5		0
681		322		360		2		5		0
682		424		360		0		2		0
683		323		361		2		5		0
684		324		361		0		5		0
685		409		361		1		2		0
686		325		362		2		5		0
687		326		362		1		5		0
688		406		362		0		2		0
689		327		363		1		5		0
690		328		363		2		5		0
691		402		363		0		2		0
692		329		364		0		5		0
693		330		364		1		5		0
694		458		364		2		2		0
695		331		365		2		5		0
696		332		365		0		5		0
697		423		365		1		2		0
698		333		366		1		5		0
699		334		366		2		5		0
700		432		366		0		2		0
701		335		367		1		5		0
702		336		367		2		5		0
703		402		367		0		2		0
704		337		368		2		5		0
705		338		368		1		5		0
706		470		368		0		2		0
707		339		369		2		5		0
708		340		369		0		5		0
709		419		369		1		2		0
710		341		370		1		5		0
711		342		370		2		5		0
712		453		370		0		2		0
713		343		371		2		5		0
714		344		371		0		5		0
715		415		371		1		2		0
716		345		372		1		5		0
717		346		372		2		5		0
718		431		372		0		2		0
719		347		373		1		5		0
720		348		373		2		5		0
721		465		373		0		2		0
722		349		374		0		5		0
723		350		374		1		5		0
724		474		374		2		2		0
725		351		375		1		5		0
726		352		375		2		5		0
727		448		375		0		2		0
728		353		376		2		5		0
729		354		376		0		5		0
730		451		376		1		2		0
731		355		377		2		5		0
732		356		377		0		5		0
733		445		377		1		2		0
734		357		378		1		5		0
735		358		378		2		5		0
736		407		378		0		2		0
737		359		379		2		5		0
738		360		379		1		5		0
739		472		379		0		2		0
740		361		380		0		5		0
741		362		380		1		5		0
742		454		380		2		2		0
743		363		381		1		5		0
744		364		381		2		5		0
745		407		381		0		2		0
746		365		382		2		5		0
747		366		382		1		5		0
748		432		382		0		2		0
749		367		383		0		5		0
750		368		383		1		5		0
751		427		383		2		2		0
752		369		384		1		5		0
753		370		384		2		5		0
754		422		384		0		2		0
755		371		385		2		5		0
756		372		385		1		5		0
757		445		385		0		2		0
758		373		386		1		5		0
759		374		386		0		5		0
760		433		386		2		2		0
761		375		387		2		5		0
762		376		387		0		5		0
763		413		387		1		2		0
764		377		388		2		5		0
765		378		388		0		5		0
766		428		388		1		2		0
767		379		389		0		5		0
768		380		389		2		5		0
769		408		389		1		2		0
770		381		390		0		5		0
771		382		390		1		5		0
772		465		390		2		2		0
773		383		391		0		5		0
774		384		391		1		5		0
775		417		391		2		2		0
776		385		392		0		5		0
777		386		392		1		5		0
778		436		392		2		2		0
779		387		393		1		5		0
780		388		393		0		5		0
781		479		393		2		2		0
782		389		394		2		5		0
783		390		394		0		5		0
784		412		394		1		2		0
785		391		395		1		5		0
786		392		395		2		5		0
787		470		395		0		2		0
788		393		396		1		5		0
789		394		396		0		5		0
790		439		396		2		2		0
791		395		397		1		5		0
792		396		397		2		5		0
793		446		397		0		2		0
794		397		398		2		5		0
795		398		398		1		5		0
796		427		398		0		2		0
797		399		399		0		5		0
798		400		399		2		5		0
799		470		399		1		2		0
